sat
(:max-memory          18.01
 :memory              17.92
 :nlsat-conflicts     1
 :nlsat-learned-added 1
 :nlsat-propagations  11
 :nlsat-stages        5
 :num-allocs          5165
 :rlimit-count        740
 :time                0.00
 :total-time          0.01)
